NAME: renC50
TYPE: TSP
COMMENT: 50 random cities (seed : 3, range: 10000)
DIMENSION: 50
EDGE_WEIGHT_TYPE : EUC_2D
NODE_COORD_SECTION
1 3734 3660
2 4210 2581
3 9128 7202
4 4549 6564
5 7459 3961
6 5585 6882
7 8277 3614
8 2981 2806
9 4576 8137
10 5886 6099
11 2911 3092
12 3385 4795
13 278 1913
14 5357 9259
15 1946 2793
16 2638 7635
17 8922 9768
18 8192 1417
19 3561 4134
20 4153 8787
21 8857 8089
22 5632 7074
23 7270 3142
24 9928 5135
25 9724 414
26 1539 9421
27 3157 1589
28 8229 4238
29 7507 1246
30 5430 610
31 7526 5425
32 1075 8186
33 6571 4687
34 8995 8922
35 8850 1709
36 5265 4780
37 3946 2395
38 3930 7426
39 7403 5593
40 7620 6995
41 1199 1983
42 8344 8631
43 1326 3882
44 1198 5790
45 6692 1671
46 6180 9882
47 8609 56
48 2779 6269
49 6814 1843
50 127 4444
EOF
